set Months := 1 2 3 4 5 6 7 8 9 10 11 12;

param Demand := 
    1 400
    2 400
   	3 800
    4 800
    5 1200
    6 1200
    7 1200
    8 1200
    9 800
    10 800
    11 400
    12 400;
    
param Month :=
    1 "Январь"
    2 "Февраль"
    3 "Март"
    4 "Апрель"
    5 "Май"
    6 "Июнь"
    7 "Июль"
    8 "Август"
    9 "Сентябрь"
    10 "Октябрь"
    11 "Ноябрь"
    12 "Декабрь";

param Setup_Cost := 5000;
param Unit_Cost := 100;
param Storage_Cost := 5;
param Initial_Inventory := 200;